n = 443;
rows = 1275;
supports = [|
  {1},{1},
 |{1},28..417,
 |{2},{2},
 |{2},29..418,
 |{3},{3},
 |{3},30..419,
 |{4},{4},
 |{4},31..420,
 |{5},{5},
 |{5},32..421,
 |{6},{6},
 |{6},33..422,
 |{7},{7},
 |{7},34..423,
 |{8},{8},
 |{8},35..424,
 |{9},{9},
 |{9},36..425,
 |{10},{10},
 |{10},37..426,
 |{11},{11},
 |{11},38..427,
 |{12},{12},
 |{12},39..428,
 |{13},{13},
 |{13},40..429,
 |{14},{14},
 |{14},41..430,
 |{15},{15},
 |{15},42..431,
 |{16},{16},
 |{16},43..432,
 |{17},{17},
 |{17},44..433,
 |{18},{18},
 |{18},45..434,
 |{19},{19},
 |{19},46..435,
 |{20},{20},
 |{20},47..436,
 |{21},{21},
 |{21},48..437,
 |{22},{22},
 |{22},49..438,
 |{23},{23},
 |{23},50..439,
 |{24},{24},
 |{24},51..440,
 |{25},{25},
 |{25},52..441,
 |{26},{26},
 |{26},53..442,
 |{27},{27},
 |{27},54..443,
 |{28},{28},
 |{28},{1},
 |{28},55..443,
 |{29},{29},
 |{29},1..2,
 |{29},56..443,
 |{30},{30},
 |{30},1..3,
 |{30},57..443,
 |{31},{31},
 |{31},1..4,
 |{31},58..443,
 |{32},{32},
 |{32},1..5,
 |{32},59..443,
 |{33},{33},
 |{33},1..6,
 |{33},60..443,
 |{34},{34},
 |{34},1..7,
 |{34},61..443,
 |{35},{35},
 |{35},1..8,
 |{35},62..443,
 |{36},{36},
 |{36},1..9,
 |{36},63..443,
 |{37},{37},
 |{37},1..10,
 |{37},64..443,
 |{38},{38},
 |{38},1..11,
 |{38},65..443,
 |{39},{39},
 |{39},1..12,
 |{39},66..443,
 |{40},{40},
 |{40},1..13,
 |{40},67..443,
 |{41},{41},
 |{41},1..14,
 |{41},68..443,
 |{42},{42},
 |{42},1..15,
 |{42},69..443,
 |{43},{43},
 |{43},1..16,
 |{43},70..443,
 |{44},{44},
 |{44},1..17,
 |{44},71..443,
 |{45},{45},
 |{45},1..18,
 |{45},72..443,
 |{46},{46},
 |{46},1..19,
 |{46},73..443,
 |{47},{47},
 |{47},1..20,
 |{47},74..443,
 |{48},{48},
 |{48},1..21,
 |{48},75..443,
 |{49},{49},
 |{49},1..22,
 |{49},76..443,
 |{50},{50},
 |{50},1..23,
 |{50},77..443,
 |{51},{51},
 |{51},1..24,
 |{51},78..443,
 |{52},{52},
 |{52},1..25,
 |{52},79..443,
 |{53},{53},
 |{53},1..26,
 |{53},80..443,
 |{54},{54},
 |{54},1..27,
 |{54},81..443,
 |{55},{55},
 |{55},1..28,
 |{55},82..443,
 |{56},{56},
 |{56},1..29,
 |{56},83..443,
 |{57},{57},
 |{57},1..30,
 |{57},84..443,
 |{58},{58},
 |{58},1..31,
 |{58},85..443,
 |{59},{59},
 |{59},1..32,
 |{59},86..443,
 |{60},{60},
 |{60},1..33,
 |{60},87..443,
 |{61},{61},
 |{61},1..34,
 |{61},88..443,
 |{62},{62},
 |{62},1..35,
 |{62},89..443,
 |{63},{63},
 |{63},1..36,
 |{63},90..443,
 |{64},{64},
 |{64},1..37,
 |{64},91..443,
 |{65},{65},
 |{65},1..38,
 |{65},92..443,
 |{66},{66},
 |{66},1..39,
 |{66},93..443,
 |{67},{67},
 |{67},1..40,
 |{67},94..443,
 |{68},{68},
 |{68},1..41,
 |{68},95..443,
 |{69},{69},
 |{69},1..42,
 |{69},96..443,
 |{70},{70},
 |{70},1..43,
 |{70},97..443,
 |{71},{71},
 |{71},1..44,
 |{71},98..443,
 |{72},{72},
 |{72},1..45,
 |{72},99..443,
 |{73},{73},
 |{73},1..46,
 |{73},100..443,
 |{74},{74},
 |{74},1..47,
 |{74},101..443,
 |{75},{75},
 |{75},1..48,
 |{75},102..443,
 |{76},{76},
 |{76},1..49,
 |{76},103..443,
 |{77},{77},
 |{77},1..50,
 |{77},104..443,
 |{78},{78},
 |{78},1..51,
 |{78},105..443,
 |{79},{79},
 |{79},1..52,
 |{79},106..443,
 |{80},{80},
 |{80},1..53,
 |{80},107..443,
 |{81},{81},
 |{81},1..54,
 |{81},108..443,
 |{82},{82},
 |{82},1..55,
 |{82},109..443,
 |{83},{83},
 |{83},1..56,
 |{83},110..443,
 |{84},{84},
 |{84},1..57,
 |{84},111..443,
 |{85},{85},
 |{85},1..58,
 |{85},112..443,
 |{86},{86},
 |{86},1..59,
 |{86},113..443,
 |{87},{87},
 |{87},1..60,
 |{87},114..443,
 |{88},{88},
 |{88},1..61,
 |{88},115..443,
 |{89},{89},
 |{89},1..62,
 |{89},116..443,
 |{90},{90},
 |{90},1..63,
 |{90},117..443,
 |{91},{91},
 |{91},1..64,
 |{91},118..443,
 |{92},{92},
 |{92},1..65,
 |{92},119..443,
 |{93},{93},
 |{93},1..66,
 |{93},120..443,
 |{94},{94},
 |{94},1..67,
 |{94},121..443,
 |{95},{95},
 |{95},1..68,
 |{95},122..443,
 |{96},{96},
 |{96},1..69,
 |{96},123..443,
 |{97},{97},
 |{97},1..70,
 |{97},124..443,
 |{98},{98},
 |{98},1..71,
 |{98},125..443,
 |{99},{99},
 |{99},1..72,
 |{99},126..443,
 |{100},{100},
 |{100},1..73,
 |{100},127..443,
 |{101},{101},
 |{101},1..74,
 |{101},128..443,
 |{102},{102},
 |{102},1..75,
 |{102},129..443,
 |{103},{103},
 |{103},1..76,
 |{103},130..443,
 |{104},{104},
 |{104},1..77,
 |{104},131..443,
 |{105},{105},
 |{105},1..78,
 |{105},132..443,
 |{106},{106},
 |{106},1..79,
 |{106},133..443,
 |{107},{107},
 |{107},1..80,
 |{107},134..443,
 |{108},{108},
 |{108},1..81,
 |{108},135..443,
 |{109},{109},
 |{109},1..82,
 |{109},136..443,
 |{110},{110},
 |{110},1..83,
 |{110},137..443,
 |{111},{111},
 |{111},1..84,
 |{111},138..443,
 |{112},{112},
 |{112},1..85,
 |{112},139..443,
 |{113},{113},
 |{113},1..86,
 |{113},140..443,
 |{114},{114},
 |{114},1..87,
 |{114},141..443,
 |{115},{115},
 |{115},1..88,
 |{115},142..443,
 |{116},{116},
 |{116},1..89,
 |{116},143..443,
 |{117},{117},
 |{117},1..90,
 |{117},144..443,
 |{118},{118},
 |{118},1..91,
 |{118},145..443,
 |{119},{119},
 |{119},1..92,
 |{119},146..443,
 |{120},{120},
 |{120},1..93,
 |{120},147..443,
 |{121},{121},
 |{121},1..94,
 |{121},148..443,
 |{122},{122},
 |{122},1..95,
 |{122},149..443,
 |{123},{123},
 |{123},1..96,
 |{123},150..443,
 |{124},{124},
 |{124},1..97,
 |{124},151..443,
 |{125},{125},
 |{125},1..98,
 |{125},152..443,
 |{126},{126},
 |{126},1..99,
 |{126},153..443,
 |{127},{127},
 |{127},1..100,
 |{127},154..443,
 |{128},{128},
 |{128},1..101,
 |{128},155..443,
 |{129},{129},
 |{129},1..102,
 |{129},156..443,
 |{130},{130},
 |{130},1..103,
 |{130},157..443,
 |{131},{131},
 |{131},1..104,
 |{131},158..443,
 |{132},{132},
 |{132},1..105,
 |{132},159..443,
 |{133},{133},
 |{133},1..106,
 |{133},160..443,
 |{134},{134},
 |{134},1..107,
 |{134},161..443,
 |{135},{135},
 |{135},1..108,
 |{135},162..443,
 |{136},{136},
 |{136},1..109,
 |{136},163..443,
 |{137},{137},
 |{137},1..110,
 |{137},164..443,
 |{138},{138},
 |{138},1..111,
 |{138},165..443,
 |{139},{139},
 |{139},1..112,
 |{139},166..443,
 |{140},{140},
 |{140},1..113,
 |{140},167..443,
 |{141},{141},
 |{141},1..114,
 |{141},168..443,
 |{142},{142},
 |{142},1..115,
 |{142},169..443,
 |{143},{143},
 |{143},1..116,
 |{143},170..443,
 |{144},{144},
 |{144},1..117,
 |{144},171..443,
 |{145},{145},
 |{145},1..118,
 |{145},172..443,
 |{146},{146},
 |{146},1..119,
 |{146},173..443,
 |{147},{147},
 |{147},1..120,
 |{147},174..443,
 |{148},{148},
 |{148},1..121,
 |{148},175..443,
 |{149},{149},
 |{149},1..122,
 |{149},176..443,
 |{150},{150},
 |{150},1..123,
 |{150},177..443,
 |{151},{151},
 |{151},1..124,
 |{151},178..443,
 |{152},{152},
 |{152},1..125,
 |{152},179..443,
 |{153},{153},
 |{153},1..126,
 |{153},180..443,
 |{154},{154},
 |{154},1..127,
 |{154},181..443,
 |{155},{155},
 |{155},1..128,
 |{155},182..443,
 |{156},{156},
 |{156},1..129,
 |{156},183..443,
 |{157},{157},
 |{157},1..130,
 |{157},184..443,
 |{158},{158},
 |{158},1..131,
 |{158},185..443,
 |{159},{159},
 |{159},1..132,
 |{159},186..443,
 |{160},{160},
 |{160},1..133,
 |{160},187..443,
 |{161},{161},
 |{161},1..134,
 |{161},188..443,
 |{162},{162},
 |{162},1..135,
 |{162},189..443,
 |{163},{163},
 |{163},1..136,
 |{163},190..443,
 |{164},{164},
 |{164},1..137,
 |{164},191..443,
 |{165},{165},
 |{165},1..138,
 |{165},192..443,
 |{166},{166},
 |{166},1..139,
 |{166},193..443,
 |{167},{167},
 |{167},1..140,
 |{167},194..443,
 |{168},{168},
 |{168},1..141,
 |{168},195..443,
 |{169},{169},
 |{169},1..142,
 |{169},196..443,
 |{170},{170},
 |{170},1..143,
 |{170},197..443,
 |{171},{171},
 |{171},1..144,
 |{171},198..443,
 |{172},{172},
 |{172},1..145,
 |{172},199..443,
 |{173},{173},
 |{173},1..146,
 |{173},200..443,
 |{174},{174},
 |{174},1..147,
 |{174},201..443,
 |{175},{175},
 |{175},1..148,
 |{175},202..443,
 |{176},{176},
 |{176},1..149,
 |{176},203..443,
 |{177},{177},
 |{177},1..150,
 |{177},204..443,
 |{178},{178},
 |{178},1..151,
 |{178},205..443,
 |{179},{179},
 |{179},1..152,
 |{179},206..443,
 |{180},{180},
 |{180},1..153,
 |{180},207..443,
 |{181},{181},
 |{181},1..154,
 |{181},208..443,
 |{182},{182},
 |{182},1..155,
 |{182},209..443,
 |{183},{183},
 |{183},1..156,
 |{183},210..443,
 |{184},{184},
 |{184},1..157,
 |{184},211..443,
 |{185},{185},
 |{185},1..158,
 |{185},212..443,
 |{186},{186},
 |{186},1..159,
 |{186},213..443,
 |{187},{187},
 |{187},1..160,
 |{187},214..443,
 |{188},{188},
 |{188},1..161,
 |{188},215..443,
 |{189},{189},
 |{189},1..162,
 |{189},216..443,
 |{190},{190},
 |{190},1..163,
 |{190},217..443,
 |{191},{191},
 |{191},1..164,
 |{191},218..443,
 |{192},{192},
 |{192},1..165,
 |{192},219..443,
 |{193},{193},
 |{193},1..166,
 |{193},220..443,
 |{194},{194},
 |{194},1..167,
 |{194},221..443,
 |{195},{195},
 |{195},1..168,
 |{195},222..443,
 |{196},{196},
 |{196},1..169,
 |{196},223..443,
 |{197},{197},
 |{197},1..170,
 |{197},224..443,
 |{198},{198},
 |{198},1..171,
 |{198},225..443,
 |{199},{199},
 |{199},1..172,
 |{199},226..443,
 |{200},{200},
 |{200},1..173,
 |{200},227..443,
 |{201},{201},
 |{201},1..174,
 |{201},228..443,
 |{202},{202},
 |{202},1..175,
 |{202},229..443,
 |{203},{203},
 |{203},1..176,
 |{203},230..443,
 |{204},{204},
 |{204},1..177,
 |{204},231..443,
 |{205},{205},
 |{205},1..178,
 |{205},232..443,
 |{206},{206},
 |{206},1..179,
 |{206},233..443,
 |{207},{207},
 |{207},1..180,
 |{207},234..443,
 |{208},{208},
 |{208},1..181,
 |{208},235..443,
 |{209},{209},
 |{209},1..182,
 |{209},236..443,
 |{210},{210},
 |{210},1..183,
 |{210},237..443,
 |{211},{211},
 |{211},1..184,
 |{211},238..443,
 |{212},{212},
 |{212},1..185,
 |{212},239..443,
 |{213},{213},
 |{213},1..186,
 |{213},240..443,
 |{214},{214},
 |{214},1..187,
 |{214},241..443,
 |{215},{215},
 |{215},1..188,
 |{215},242..443,
 |{216},{216},
 |{216},1..189,
 |{216},243..443,
 |{217},{217},
 |{217},1..190,
 |{217},244..443,
 |{218},{218},
 |{218},1..191,
 |{218},245..443,
 |{219},{219},
 |{219},1..192,
 |{219},246..443,
 |{220},{220},
 |{220},1..193,
 |{220},247..443,
 |{221},{221},
 |{221},1..194,
 |{221},248..443,
 |{222},{222},
 |{222},1..195,
 |{222},249..443,
 |{223},{223},
 |{223},1..196,
 |{223},250..443,
 |{224},{224},
 |{224},1..197,
 |{224},251..443,
 |{225},{225},
 |{225},1..198,
 |{225},252..443,
 |{226},{226},
 |{226},1..199,
 |{226},253..443,
 |{227},{227},
 |{227},1..200,
 |{227},254..443,
 |{228},{228},
 |{228},1..201,
 |{228},255..443,
 |{229},{229},
 |{229},1..202,
 |{229},256..443,
 |{230},{230},
 |{230},1..203,
 |{230},257..443,
 |{231},{231},
 |{231},1..204,
 |{231},258..443,
 |{232},{232},
 |{232},1..205,
 |{232},259..443,
 |{233},{233},
 |{233},1..206,
 |{233},260..443,
 |{234},{234},
 |{234},1..207,
 |{234},261..443,
 |{235},{235},
 |{235},1..208,
 |{235},262..443,
 |{236},{236},
 |{236},1..209,
 |{236},263..443,
 |{237},{237},
 |{237},1..210,
 |{237},264..443,
 |{238},{238},
 |{238},1..211,
 |{238},265..443,
 |{239},{239},
 |{239},1..212,
 |{239},266..443,
 |{240},{240},
 |{240},1..213,
 |{240},267..443,
 |{241},{241},
 |{241},1..214,
 |{241},268..443,
 |{242},{242},
 |{242},1..215,
 |{242},269..443,
 |{243},{243},
 |{243},1..216,
 |{243},270..443,
 |{244},{244},
 |{244},1..217,
 |{244},271..443,
 |{245},{245},
 |{245},1..218,
 |{245},272..443,
 |{246},{246},
 |{246},1..219,
 |{246},273..443,
 |{247},{247},
 |{247},1..220,
 |{247},274..443,
 |{248},{248},
 |{248},1..221,
 |{248},275..443,
 |{249},{249},
 |{249},1..222,
 |{249},276..443,
 |{250},{250},
 |{250},1..223,
 |{250},277..443,
 |{251},{251},
 |{251},1..224,
 |{251},278..443,
 |{252},{252},
 |{252},1..225,
 |{252},279..443,
 |{253},{253},
 |{253},1..226,
 |{253},280..443,
 |{254},{254},
 |{254},1..227,
 |{254},281..443,
 |{255},{255},
 |{255},1..228,
 |{255},282..443,
 |{256},{256},
 |{256},1..229,
 |{256},283..443,
 |{257},{257},
 |{257},1..230,
 |{257},284..443,
 |{258},{258},
 |{258},1..231,
 |{258},285..443,
 |{259},{259},
 |{259},1..232,
 |{259},286..443,
 |{260},{260},
 |{260},1..233,
 |{260},287..443,
 |{261},{261},
 |{261},1..234,
 |{261},288..443,
 |{262},{262},
 |{262},1..235,
 |{262},289..443,
 |{263},{263},
 |{263},1..236,
 |{263},290..443,
 |{264},{264},
 |{264},1..237,
 |{264},291..443,
 |{265},{265},
 |{265},1..238,
 |{265},292..443,
 |{266},{266},
 |{266},1..239,
 |{266},293..443,
 |{267},{267},
 |{267},1..240,
 |{267},294..443,
 |{268},{268},
 |{268},1..241,
 |{268},295..443,
 |{269},{269},
 |{269},1..242,
 |{269},296..443,
 |{270},{270},
 |{270},1..243,
 |{270},297..443,
 |{271},{271},
 |{271},1..244,
 |{271},298..443,
 |{272},{272},
 |{272},1..245,
 |{272},299..443,
 |{273},{273},
 |{273},1..246,
 |{273},300..443,
 |{274},{274},
 |{274},1..247,
 |{274},301..443,
 |{275},{275},
 |{275},1..248,
 |{275},302..443,
 |{276},{276},
 |{276},1..249,
 |{276},303..443,
 |{277},{277},
 |{277},1..250,
 |{277},304..443,
 |{278},{278},
 |{278},1..251,
 |{278},305..443,
 |{279},{279},
 |{279},1..252,
 |{279},306..443,
 |{280},{280},
 |{280},1..253,
 |{280},307..443,
 |{281},{281},
 |{281},1..254,
 |{281},308..443,
 |{282},{282},
 |{282},1..255,
 |{282},309..443,
 |{283},{283},
 |{283},1..256,
 |{283},310..443,
 |{284},{284},
 |{284},1..257,
 |{284},311..443,
 |{285},{285},
 |{285},1..258,
 |{285},312..443,
 |{286},{286},
 |{286},1..259,
 |{286},313..443,
 |{287},{287},
 |{287},1..260,
 |{287},314..443,
 |{288},{288},
 |{288},1..261,
 |{288},315..443,
 |{289},{289},
 |{289},1..262,
 |{289},316..443,
 |{290},{290},
 |{290},1..263,
 |{290},317..443,
 |{291},{291},
 |{291},1..264,
 |{291},318..443,
 |{292},{292},
 |{292},1..265,
 |{292},319..443,
 |{293},{293},
 |{293},1..266,
 |{293},320..443,
 |{294},{294},
 |{294},1..267,
 |{294},321..443,
 |{295},{295},
 |{295},1..268,
 |{295},322..443,
 |{296},{296},
 |{296},1..269,
 |{296},323..443,
 |{297},{297},
 |{297},1..270,
 |{297},324..443,
 |{298},{298},
 |{298},1..271,
 |{298},325..443,
 |{299},{299},
 |{299},1..272,
 |{299},326..443,
 |{300},{300},
 |{300},1..273,
 |{300},327..443,
 |{301},{301},
 |{301},1..274,
 |{301},328..443,
 |{302},{302},
 |{302},1..275,
 |{302},329..443,
 |{303},{303},
 |{303},1..276,
 |{303},330..443,
 |{304},{304},
 |{304},1..277,
 |{304},331..443,
 |{305},{305},
 |{305},1..278,
 |{305},332..443,
 |{306},{306},
 |{306},1..279,
 |{306},333..443,
 |{307},{307},
 |{307},1..280,
 |{307},334..443,
 |{308},{308},
 |{308},1..281,
 |{308},335..443,
 |{309},{309},
 |{309},1..282,
 |{309},336..443,
 |{310},{310},
 |{310},1..283,
 |{310},337..443,
 |{311},{311},
 |{311},1..284,
 |{311},338..443,
 |{312},{312},
 |{312},1..285,
 |{312},339..443,
 |{313},{313},
 |{313},1..286,
 |{313},340..443,
 |{314},{314},
 |{314},1..287,
 |{314},341..443,
 |{315},{315},
 |{315},1..288,
 |{315},342..443,
 |{316},{316},
 |{316},1..289,
 |{316},343..443,
 |{317},{317},
 |{317},1..290,
 |{317},344..443,
 |{318},{318},
 |{318},1..291,
 |{318},345..443,
 |{319},{319},
 |{319},1..292,
 |{319},346..443,
 |{320},{320},
 |{320},1..293,
 |{320},347..443,
 |{321},{321},
 |{321},1..294,
 |{321},348..443,
 |{322},{322},
 |{322},1..295,
 |{322},349..443,
 |{323},{323},
 |{323},1..296,
 |{323},350..443,
 |{324},{324},
 |{324},1..297,
 |{324},351..443,
 |{325},{325},
 |{325},1..298,
 |{325},352..443,
 |{326},{326},
 |{326},1..299,
 |{326},353..443,
 |{327},{327},
 |{327},1..300,
 |{327},354..443,
 |{328},{328},
 |{328},1..301,
 |{328},355..443,
 |{329},{329},
 |{329},1..302,
 |{329},356..443,
 |{330},{330},
 |{330},1..303,
 |{330},357..443,
 |{331},{331},
 |{331},1..304,
 |{331},358..443,
 |{332},{332},
 |{332},1..305,
 |{332},359..443,
 |{333},{333},
 |{333},1..306,
 |{333},360..443,
 |{334},{334},
 |{334},1..307,
 |{334},361..443,
 |{335},{335},
 |{335},1..308,
 |{335},362..443,
 |{336},{336},
 |{336},1..309,
 |{336},363..443,
 |{337},{337},
 |{337},1..310,
 |{337},364..443,
 |{338},{338},
 |{338},1..311,
 |{338},365..443,
 |{339},{339},
 |{339},1..312,
 |{339},366..443,
 |{340},{340},
 |{340},1..313,
 |{340},367..443,
 |{341},{341},
 |{341},1..314,
 |{341},368..443,
 |{342},{342},
 |{342},1..315,
 |{342},369..443,
 |{343},{343},
 |{343},1..316,
 |{343},370..443,
 |{344},{344},
 |{344},1..317,
 |{344},371..443,
 |{345},{345},
 |{345},1..318,
 |{345},372..443,
 |{346},{346},
 |{346},1..319,
 |{346},373..443,
 |{347},{347},
 |{347},1..320,
 |{347},374..443,
 |{348},{348},
 |{348},1..321,
 |{348},375..443,
 |{349},{349},
 |{349},1..322,
 |{349},376..443,
 |{350},{350},
 |{350},1..323,
 |{350},377..443,
 |{351},{351},
 |{351},1..324,
 |{351},378..443,
 |{352},{352},
 |{352},1..325,
 |{352},379..443,
 |{353},{353},
 |{353},1..326,
 |{353},380..443,
 |{354},{354},
 |{354},1..327,
 |{354},381..443,
 |{355},{355},
 |{355},1..328,
 |{355},382..443,
 |{356},{356},
 |{356},1..329,
 |{356},383..443,
 |{357},{357},
 |{357},1..330,
 |{357},384..443,
 |{358},{358},
 |{358},1..331,
 |{358},385..443,
 |{359},{359},
 |{359},1..332,
 |{359},386..443,
 |{360},{360},
 |{360},1..333,
 |{360},387..443,
 |{361},{361},
 |{361},1..334,
 |{361},388..443,
 |{362},{362},
 |{362},1..335,
 |{362},389..443,
 |{363},{363},
 |{363},1..336,
 |{363},390..443,
 |{364},{364},
 |{364},1..337,
 |{364},391..443,
 |{365},{365},
 |{365},1..338,
 |{365},392..443,
 |{366},{366},
 |{366},1..339,
 |{366},393..443,
 |{367},{367},
 |{367},1..340,
 |{367},394..443,
 |{368},{368},
 |{368},1..341,
 |{368},395..443,
 |{369},{369},
 |{369},1..342,
 |{369},396..443,
 |{370},{370},
 |{370},1..343,
 |{370},397..443,
 |{371},{371},
 |{371},1..344,
 |{371},398..443,
 |{372},{372},
 |{372},1..345,
 |{372},399..443,
 |{373},{373},
 |{373},1..346,
 |{373},400..443,
 |{374},{374},
 |{374},1..347,
 |{374},401..443,
 |{375},{375},
 |{375},1..348,
 |{375},402..443,
 |{376},{376},
 |{376},1..349,
 |{376},403..443,
 |{377},{377},
 |{377},1..350,
 |{377},404..443,
 |{378},{378},
 |{378},1..351,
 |{378},405..443,
 |{379},{379},
 |{379},1..352,
 |{379},406..443,
 |{380},{380},
 |{380},1..353,
 |{380},407..443,
 |{381},{381},
 |{381},1..354,
 |{381},408..443,
 |{382},{382},
 |{382},1..355,
 |{382},409..443,
 |{383},{383},
 |{383},1..356,
 |{383},410..443,
 |{384},{384},
 |{384},1..357,
 |{384},411..443,
 |{385},{385},
 |{385},1..358,
 |{385},412..443,
 |{386},{386},
 |{386},1..359,
 |{386},413..443,
 |{387},{387},
 |{387},1..360,
 |{387},414..443,
 |{388},{388},
 |{388},1..361,
 |{388},415..443,
 |{389},{389},
 |{389},1..362,
 |{389},416..443,
 |{390},{390},
 |{390},1..363,
 |{390},417..443,
 |{391},{391},
 |{391},1..364,
 |{391},418..443,
 |{392},{392},
 |{392},1..365,
 |{392},419..443,
 |{393},{393},
 |{393},1..366,
 |{393},420..443,
 |{394},{394},
 |{394},1..367,
 |{394},421..443,
 |{395},{395},
 |{395},1..368,
 |{395},422..443,
 |{396},{396},
 |{396},1..369,
 |{396},423..443,
 |{397},{397},
 |{397},1..370,
 |{397},424..443,
 |{398},{398},
 |{398},1..371,
 |{398},425..443,
 |{399},{399},
 |{399},1..372,
 |{399},426..443,
 |{400},{400},
 |{400},1..373,
 |{400},427..443,
 |{401},{401},
 |{401},1..374,
 |{401},428..443,
 |{402},{402},
 |{402},1..375,
 |{402},429..443,
 |{403},{403},
 |{403},1..376,
 |{403},430..443,
 |{404},{404},
 |{404},1..377,
 |{404},431..443,
 |{405},{405},
 |{405},1..378,
 |{405},432..443,
 |{406},{406},
 |{406},1..379,
 |{406},433..443,
 |{407},{407},
 |{407},1..380,
 |{407},434..443,
 |{408},{408},
 |{408},1..381,
 |{408},435..443,
 |{409},{409},
 |{409},1..382,
 |{409},436..443,
 |{410},{410},
 |{410},1..383,
 |{410},437..443,
 |{411},{411},
 |{411},1..384,
 |{411},438..443,
 |{412},{412},
 |{412},1..385,
 |{412},439..443,
 |{413},{413},
 |{413},1..386,
 |{413},440..443,
 |{414},{414},
 |{414},1..387,
 |{414},441..443,
 |{415},{415},
 |{415},1..388,
 |{415},442..443,
 |{416},{416},
 |{416},1..389,
 |{416},{443},
 |{417},{417},
 |{417},1..390,
 |{418},{418},
 |{418},2..391,
 |{419},{419},
 |{419},3..392,
 |{420},{420},
 |{420},4..393,
 |{421},{421},
 |{421},5..394,
 |{422},{422},
 |{422},6..395,
 |{423},{423},
 |{423},7..396,
 |{424},{424},
 |{424},8..397,
 |{425},{425},
 |{425},9..398,
 |{426},{426},
 |{426},10..399,
 |{427},{427},
 |{427},11..400,
 |{428},{428},
 |{428},12..401,
 |{429},{429},
 |{429},13..402,
 |{430},{430},
 |{430},14..403,
 |{431},{431},
 |{431},15..404,
 |{432},{432},
 |{432},16..405,
 |{433},{433},
 |{433},17..406,
 |{434},{434},
 |{434},18..407,
 |{435},{435},
 |{435},19..408,
 |{436},{436},
 |{436},20..409,
 |{437},{437},
 |{437},21..410,
 |{438},{438},
 |{438},22..411,
 |{439},{439},
 |{439},23..412,
 |{440},{440},
 |{440},24..413,
 |{441},{441},
 |{441},25..414,
 |{442},{442},
 |{442},26..415,
 |{443},{443},
 |{443},27..416 |];

t = 590;

indexes = [|
    0,18,
  | 0,27,
  | 0,308,
  | 1,166,
  | 1,202,
  | 1,298,
  | 2,40,
  | 2,60,
  | 2,135,
  | 2,272,
  | 3,135,
  | 4,291,
  | 5,12,
  | 6,15,
  | 6,44,
  | 6,139,
  | 6,153,
  | 7,70,
  | 7,129,
  | 7,413,
  | 8,12,
  | 8,293,
  | 9,76,
  | 9,212,
  | 9,249,
  | 9,398,
  | 10,148,
  | 10,157,
  | 10,379,
  | 11,168,
  | 11,218,
  | 11,357,
  | 12,43,
  | 12,84,
  | 12,96,
  | 12,140,
  | 12,195,
  | 13,62,
  | 13,115,
  | 14,296,
  | 15,251,
  | 16,94,
  | 16,100,
  | 16,229,
  | 16,244,
  | 16,306,
  | 17,60,
  | 17,351,
  | 17,384,
  | 17,392,
  | 18,140,
  | 18,282,
  | 18,431,
  | 19,253,
  | 19,314,
  | 19,356,
  | 19,419,
  | 20,65,
  | 20,125,
  | 21,87,
  | 21,94,
  | 21,400,
  | 22,54,
  | 22,343,
  | 23,201,
  | 23,294,
  | 23,374,
  | 24,46,
  | 24,210,
  | 24,237,
  | 24,358,
  | 25,133,
  | 25,398,
  | 26,50,
  | 26,292,
  | 26,393,
  | 27,87,
  | 27,327,
  | 28,55,
  | 28,89,
  | 28,170,
  | 29,56,
  | 29,260,
  | 29,286,
  | 30,379,
  | 31,108,
  | 31,273,
  | 32,173,
  | 32,242,
  | 33,123,
  | 33,141,
  | 33,183,
  | 33,211,
  | 33,414,
  | 33,420,
  | 33,428,
  | 34,245,
  | 34,255,
  | 34,373,
  | 34,385,
  | 35,213,
  | 35,351,
  | 36,158,
  | 36,366,
  | 37,146,
  | 37,293,
  | 38,72,
  | 38,303,
  | 38,356,
  | 38,358,
  | 39,261,
  | 40,252,
  | 41,53,
  | 41,175,
  | 41,205,
  | 42,58,
  | 42,203,
  | 42,226,
  | 42,317,
  | 42,404,
  | 43,104,
  | 43,236,
  | 43,294,
  | 43,307,
  | 44,296,
  | 45,229,
  | 45,255,
  | 45,412,
  | 45,439,
  | 47,125,
  | 47,286,
  | 48,49,
  | 48,68,
  | 48,77,
  | 49,415,
  | 50,278,
  | 50,309,
  | 51,361,
  | 51,389,
  | 52,119,
  | 52,424,
  | 54,280,
  | 55,153,
  | 56,152,
  | 56,198,
  | 56,200,
  | 56,279,
  | 56,295,
  | 56,369,
  | 56,372,
  | 57,96,
  | 57,256,
  | 57,290,
  | 57,397,
  | 58,174,
  | 58,317,
  | 59,191,
  | 59,373,
  | 60,362,
  | 60,406,
  | 61,156,
  | 61,189,
  | 61,374,
  | 61,402,
  | 62,217,
  | 63,239,
  | 63,341,
  | 63,392,
  | 64,152,
  | 64,281,
  | 64,336,
  | 65,186,
  | 65,221,
  | 65,421,
  | 66,77,
  | 66,194,
  | 67,213,
  | 67,336,
  | 68,91,
  | 68,155,
  | 68,159,
  | 68,236,
  | 69,155,
  | 69,293,
  | 69,407,
  | 71,273,
  | 71,321,
  | 71,365,
  | 72,102,
  | 72,192,
  | 72,267,
  | 72,282,
  | 72,285,
  | 72,314,
  | 72,426,
  | 73,283,
  | 73,298,
  | 74,154,
  | 74,240,
  | 74,245,
  | 75,91,
  | 75,141,
  | 76,89,
  | 76,249,
  | 78,293,
  | 79,310,
  | 79,318,
  | 79,341,
  | 80,109,
  | 80,110,
  | 80,118,
  | 80,156,
  | 80,185,
  | 81,277,
  | 82,339,
  | 83,253,
  | 83,272,
  | 85,189,
  | 85,197,
  | 86,270,
  | 87,319,
  | 88,170,
  | 88,219,
  | 89,408,
  | 90,101,
  | 90,144,
  | 90,208,
  | 90,219,
  | 91,155,
  | 91,187,
  | 91,193,
  | 91,227,
  | 91,366,
  | 91,425,
  | 92,181,
  | 92,318,
  | 92,360,
  | 92,437,
  | 93,238,
  | 93,400,
  | 95,370,
  | 96,211,
  | 96,391,
  | 97,147,
  | 97,173,
  | 98,203,
  | 98,276,
  | 98,412,
  | 99,190,
  | 99,377,
  | 100,306,
  | 101,180,
  | 101,208,
  | 101,224,
  | 101,286,
  | 102,192,
  | 102,246,
  | 102,259,
  | 102,282,
  | 102,431,
  | 103,315,
  | 103,411,
  | 104,106,
  | 104,137,
  | 104,164,
  | 104,212,
  | 104,294,
  | 105,228,
  | 105,380,
  | 105,442,
  | 107,139,
  | 108,236,
  | 109,110,
  | 110,266,
  | 110,387,
  | 111,159,
  | 111,390,
  | 112,131,
  | 112,429,
  | 113,279,
  | 113,421,
  | 114,355,
  | 115,172,
  | 116,162,
  | 116,288,
  | 116,376,
  | 117,145,
  | 117,384,
  | 119,361,
  | 119,386,
  | 119,389,
  | 120,355,
  | 121,130,
  | 121,388,
  | 122,419,
  | 124,262,
  | 124,278,
  | 124,364,
  | 125,268,
  | 126,160,
  | 126,271,
  | 127,165,
  | 128,367,
  | 129,427,
  | 130,184,
  | 132,301,
  | 132,350,
  | 133,405,
  | 134,430,
  | 135,179,
  | 136,161,
  | 138,194,
  | 138,418,
  | 139,221,
  | 141,187,
  | 141,374,
  | 141,418,
  | 142,183,
  | 143,330,
  | 143,366,
  | 144,180,
  | 144,208,
  | 145,209,
  | 145,384,
  | 146,176,
  | 146,316,
  | 147,266,
  | 148,214,
  | 148,284,
  | 148,379,
  | 149,190,
  | 150,237,
  | 150,400,
  | 150,427,
  | 151,269,
  | 152,170,
  | 153,219,
  | 153,221,
  | 154,290,
  | 154,293,
  | 154,311,
  | 154,346,
  | 155,236,
  | 158,172,
  | 158,334,
  | 158,366,
  | 159,325,
  | 159,333,
  | 160,176,
  | 160,298,
  | 160,346,
  | 161,332,
  | 161,434,
  | 163,196,
  | 165,188,
  | 165,189,
  | 165,197,
  | 165,199,
  | 165,275,
  | 165,313,
  | 165,374,
  | 166,280,
  | 166,388,
  | 167,217,
  | 167,334,
  | 168,230,
  | 168,307,
  | 168,337,
  | 168,391,
  | 169,374,
  | 170,212,
  | 170,323,
  | 170,358,
  | 171,335,
  | 171,357,
  | 172,401,
  | 174,349,
  | 175,236,
  | 175,316,
  | 176,236,
  | 176,240,
  | 176,244,
  | 176,331,
  | 176,363,
  | 176,405,
  | 177,198,
  | 178,384,
  | 178,406,
  | 180,208,
  | 181,437,
  | 182,299,
  | 183,207,
  | 183,211,
  | 183,297,
  | 183,435,
  | 184,429,
  | 184,438,
  | 186,196,
  | 190,204,
  | 190,377,
  | 190,383,
  | 191,254,
  | 193,366,
  | 197,241,
  | 198,200,
  | 198,279,
  | 198,372,
  | 199,355,
  | 200,228,
  | 200,234,
  | 200,348,
  | 202,256,
  | 203,226,
  | 204,222,
  | 204,258,
  | 204,377,
  | 204,383,
  | 206,289,
  | 207,355,
  | 208,382,
  | 209,340,
  | 209,368,
  | 211,278,
  | 212,237,
  | 213,239,
  | 213,336,
  | 213,358,
  | 213,434,
  | 215,380,
  | 216,321,
  | 216,401,
  | 217,236,
  | 220,229,
  | 222,239,
  | 223,374,
  | 223,402,
  | 224,286,
  | 225,418,
  | 226,412,
  | 227,321,
  | 229,271,
  | 229,385,
  | 229,439,
  | 230,235,
  | 230,266,
  | 230,396,
  | 230,438,
  | 231,337,
  | 232,367,
  | 232,371,
  | 233,301,
  | 233,350,
  | 234,338,
  | 235,350,
  | 235,403,
  | 236,331,
  | 237,294,
  | 237,358,
  | 239,318,
  | 239,351,
  | 241,395,
  | 242,324,
  | 243,304,
  | 247,260,
  | 248,379,
  | 250,336,
  | 252,419,
  | 254,349,
  | 255,349,
  | 256,423,
  | 257,346,
  | 257,378,
  | 258,318,
  | 258,416,
  | 260,417,
  | 261,288,
  | 261,376,
  | 262,312,
  | 262,322,
  | 263,371,
  | 264,300,
  | 265,393,
  | 265,433,
  | 266,355,
  | 266,387,
  | 267,285,
  | 267,362,
  | 268,286,
  | 269,398,
  | 270,374,
  | 270,399,
  | 272,354,
  | 272,430,
  | 274,419,
  | 276,320,
  | 276,404,
  | 277,360,
  | 278,284,
  | 278,293,
  | 278,423,
  | 279,295,
  | 279,299,
  | 281,369,
  | 282,303,
  | 282,426,
  | 282,431,
  | 284,325,
  | 285,310,
  | 286,323,
  | 286,369,
  | 287,353,
  | 288,334,
  | 289,322,
  | 289,379,
  | 291,298,
  | 291,333,
  | 292,364,
  | 293,302,
  | 293,363,
  | 293,407,
  | 298,333,
  | 298,344,
  | 299,300,
  | 299,421,
  | 301,350,
  | 301,359,
  | 302,325,
  | 302,394,
  | 303,314,
  | 304,324,
  | 304,343,
  | 304,429,
  | 305,409,
  | 306,398,
  | 306,410,
  | 306,415,
  | 309,312,
  | 310,351,
  | 310,354,
  | 310,362,
  | 310,406,
  | 311,345,
  | 314,419,
  | 315,343,
  | 318,341,
  | 318,360,
  | 318,416,
  | 326,354,
  | 328,339,
  | 329,357,
  | 329,389,
  | 335,357,
  | 335,441,
  | 337,357,
  | 339,384,
  | 339,406,
  | 341,372,
  | 342,396,
  | 345,397,
  | 346,347,
  | 348,380,
  | 349,404,
  | 350,389,
  | 350,396,
  | 352,386,
  | 352,424,
  | 353,357,
  | 353,436,
  | 354,381,
  | 356,358,
  | 357,389,
  | 357,441,
  | 358,427,
  | 358,434,
  | 359,424,
  | 361,371,
  | 362,430,
  | 365,425,
  | 367,370,
  | 370,389,
  | 375,437,
  | 389,432,
  | 397,422,
  | 398,400,
  | 400,409,
  | 404,412,
  | 411,423,
  | 411,433,
  | 419,440,
  | 422,423 |];

